(set-info :smt-lib-version 2.6)
(set-logic LRA)
(set-info :source |
   Monniaux, David; Quantifier Elimination by Lazy Model Enumeration, CAV 2010
|)
(set-info :category "random")
; ./Mjollnir_examples/B1/formula_167.m
(set-info :status sat)
(assert
 (forall ((|v9:0| Real) )(exists ((|v8:1| Real) )(forall ((|v7:2| Real) )(exists ((|v6:3| Real) )(forall ((|v5:4| Real) )(exists ((|v4:5| Real) )(forall ((|v3:6| Real) )(exists ((|v2:7| Real) )(forall ((|v1:8| Real) )(exists ((|v0:9| Real) )(let ((?x87 4))
(let ((?x283 (+ (+ (* 3 |v0:9|) (* (- 8) |v9:0|)) (* (- 6) |v9:0|))))
(let ((?x128 20))
(let ((?x277 (+ (+ (* 14 |v4:5|) (* 11 |v7:2|)) (* 5 |v0:9|))))
(let ((?x84 (- 8)))
(let ((?x270 (+ (+ (* (- 10) |v2:7|) (* (- 12) |v5:4|)) (* ?x128 |v9:0|))))
(let ((?x110 (- 18)))
(let ((?x264 (+ (+ (* 12 |v0:9|) (* (- 20) |v5:4|)) (* ?x87 |v4:5|))))
(let (($x286 (and (or (<= ?x264 ?x110) (<= ?x270 ?x84)) (or (<= ?x277 ?x128) (<= ?x283 ?x87)))))
(let ((?x44 (- 9)))
(let ((?x159 (* ?x44 |v4:5|)))
(let (($x257 (<= (+ (+ (* 3 |v7:2|) (* 16 |v4:5|)) ?x159) (- 15))))
(let ((?x28 (- 7)))
(let ((?x250 (+ (+ (* 11 |v3:6|) (* 0 |v5:4|)) (* (- 5) |v1:8|))))
(let ((?x22 6))
(let ((?x242 (+ (+ (* 11 |v1:8|) (* 11 |v9:0|)) (* ?x22 |v5:4|))))
(let ((?x132 14))
(let (($x237 (<= (+ (+ |v5:4| (* (- 19) |v3:6|)) (* (- 19) |v1:8|)) ?x132)))
(let (($x230 (<= (+ (+ (* ?x128 |v6:3|) (* 17 |v3:6|)) (* ?x22 |v2:7|)) 12)))
(let ((?x147 10))
(let ((?x221 (+ (+ (* 7 |v8:1|) (* 16 |v9:0|)) (* ?x128 |v0:9|))))
(let ((?x211 (+ (+ (* 2 |v7:2|) (* (- 4) |v0:9|)) (* 19 |v3:6|))))
(let (($x205 (<= (+ (+ (* (- 2) |v5:4|) (* ?x147 |v5:4|)) (* ?x22 |v3:6|)) ?x84)))
(let ((?x152 (- 19)))
(let ((?x197 (+ (+ (* (- 13) |v3:6|) (* (- 10) |v6:3|)) (* (- 3) |v4:5|))))
(let ((?x64 3))
(let (($x199 (or (<= (+ (+ |v5:4| (* (- 3) |v2:7|)) (* ?x64 |v7:2|)) ?x64) (<= ?x197 ?x152))))
(let ((?x55 (- 1)))
(let ((?x183 (* ?x64 |v7:2|)))
(let (($x185 (<= (+ (+ (* (- 3) |v1:8|) (* (- 13) |v7:2|)) ?x183) ?x55)))
(let ((?x174 (+ (+ (* (- 17) |v4:5|) (* ?x147 |v6:3|)) (* (- 11) |v0:9|))))
(let (($x233 (or (and (and (<= ?x174 ?x55) $x185) $x199) (or (or $x205 (<= ?x211 15)) (and (<= ?x221 ?x147) $x230)))))
(let (($x288 (or $x233 (or (and (and $x237 (<= ?x242 ?x22)) (and (<= ?x250 ?x28) $x257)) $x286))))
(let (($x164 (<= (+ (+ (* 19 |v2:7|) ?x159) (* (- 20) |v6:3|)) 5)))
(let (($x156 (<= (+ (+ (* ?x147 |v5:4|) (* ?x28 |v0:9|)) (* ?x152 |v3:6|)) (- 2))))
(let ((?x141 (* (- 17) |v4:5|)))
(let (($x136 (<= (+ (+ (* ?x110 |v9:0|) (* ?x128 |v5:4|)) (* ?x132 |v3:6|)) 2)))
(let (($x144 (or $x136 (<= (+ (+ (* ?x84 |v6:3|) (* (- 16) |v2:7|)) ?x141) ?x22))))
(let (($x124 (<= (+ (+ (* ?x22 |v0:9|) (* ?x110 |v3:6|)) (* 11 |v2:7|)) 1)))
(let ((?x109 (+ (+ (* 19 |v1:8|) (* (- 17) |v5:4|)) (* ?x55 |v0:9|))))
(let ((?x32 (- 16)))
(let ((?x100 (+ (+ (* (- 6) |v1:8|) (* 7 |v9:0|)) (* 13 |v0:9|))))
(let (($x94 (<= (+ (+ (* ?x84 |v0:9|) (* ?x87 |v9:0|)) (* (- 4) |v2:7|)) ?x55)))
(let ((?x80 (+ (+ (* (- 12) |v1:8|) (* (- 6) |v3:6|)) (* ?x44 |v0:9|))))
(let (($x113 (or (and (<= ?x80 13) $x94) (and (<= ?x100 ?x32) (<= ?x109 ?x110)))))
(let ((?x63 (+ (+ (* ?x55 |v8:1|) (* (- 20) |v7:2|)) (* 9 |v8:1|))))
(let ((?x51 7))
(let ((?x50 (+ (+ (* 0 |v5:4|) (* ?x44 |v2:7|)) (* 19 |v6:3|))))
(let (($x36 (<= (+ (+ (* 9 |v6:3|) (* ?x28 |v6:3|)) (* ?x32 |v6:3|)) 8)))
(let ((?x21 (+ (+ (* 17 |v2:7|) (* 18 |v8:1|)) (* 9 |v9:0|))))
(let (($x114 (or (or (or (<= ?x21 ?x22) $x36) (and (<= ?x50 ?x51) (<= ?x63 ?x64))) $x113)))
(or (or $x114 (and $x124 (and $x144 (and $x156 $x164)))) $x288)))))))))))))))))))))))))))))))))))))))))))))))))))))
)
)
)
)
)
)
)
)
)
)
(check-sat)
(exit)

